Global Parameters
ISTART = 1            (Read existing wavefunction, if there)
ISPIN  =  2           (Non-Spin polarised DFT)
ICHARG = 2         (Non-self-consistent: GGA/LDA band structures)
LREAL  = .FALSE.       (Projection operators: automatic)
ENCUT  =  600        (Cut-off energy for plane wave basis set, in eV)
# PREC   =  Accurate   (Precision level: Normal or Accurate, set Accurate when perform structure lattice relaxation calculation)
LWAVE  = .TRUE.        (Write WAVECAR or not)
LCHARG = .TRUE.        (Write CHGCAR or not)
LORBIT=  12
ADDGRID= .TRUE.        (Increase grid, helps GGA convergence)
# LVTOT  = .TRUE.      (Write total electrostatic potential into LOCPOT or not)
# LVHAR  = .TRUE.      (Write ionic + Hartree electrostatic potential into LOCPOT or not)
# NELECT = 174            (No. of electrons: charged cells, be careful)
# LPLANE = .TRUE.      (Real space distribution, supercells)
# NWRITE = 2           (Medium-level output)
# KPAR   = 2           (Divides k-grid into separate groups)
# NGXF    = 300        (FFT grid mesh density for nice charge/potential plots)
# NGYF    = 300        (FFT grid mesh density for nice charge/potential plots)
# NGZF    = 300        (FFT grid mesh density for nice charge/potential plots)
 
Electronic Relaxation
ISMEAR =  -5            (Gaussian smearing, metals:1)
SIGMA  =  0.05         (Smearing value in eV, metals:0.2)
NELM   =  400           (Max electronic SCF steps)
NELMIN =  6            (Min electronic SCF steps)
EDIFF  =  1E-05        (SCF energy convergence, in eV)
# GGA  =  PS           (PBEsol exchange-correlation)
 
Ionic Relaxation
NSW    =  0          (Max ionic steps)
IBRION =  -1            (Algorithm: 0-MD, 1-Quasi-New, 2-CG)
ISIF   =  2            (Stress/relaxation: 2-Ions, 3-Shape/Ions/V, 4-Shape/Ions)
IEDIFFG = -1E-02        (Ionic convergence, eV/AA)
ISYM =  -1           (Symmetry: 0=none, 2=GGA, 3=hybrids)
AMIX = 0.1
BMIX = 0.01
LMAXMIX = 4
NEDOS = 301
NBANDS = 261
